problem_generation/data/GISP/train/er_n=66_m=1271_p=0.60_SET2_setparam=100.00_alpha=0.50_746.lp
maximize
OBJ:100x0 + 100x1 + 100x2 + 100x3 + 100x4 + 100x5 + 100x6 + 100x7 + 100x8 + 100x9 + 100x10 + 100x11 + 100x12 + 100x13 + 100x14 + 100x15 + 100x16 + 100x17 + 100x18 + 100x19 + 100x20 + 100x21 + 100x22 + 100x23 + 100x24 + 100x25 + 100x26 + 100x27 + 100x28 + 100x29 + 100x30 + 100x31 + 100x32 + 100x33 + 100x34 + 100x35 + 100x36 + 100x37 + 100x38 + 100x39 + 100x40 + 100x41 + 100x42 + 100x43 + 100x44 + 100x45 + 100x46 + 100x47 + 100x48 + 100x49 + 100x50 + 100x51 + 100x52 + 100x53 + 100x54 + 100x55 + 100x56 + 100x57 + 100x58 + 100x59 + 100x60 + 100x61 + 100x62 + 100x63 + 100x64 + 100x65 - y26_30 - y36_62 - y59_64 - y15_39 - y17_58 - y7_35 - y29_32 - y40_41 - y48_54 - y0_14 - y6_48 - y11_14 - y29_50 - y48_63 - y6_57 - y11_23 - y29_59 - y40_59 - y10_27 - y41_42 - y33_47 - y44_47 - y2_41 - y3_6 - y51_64 - y14_24 - y3_33 - y24_65 - y7_12 - y47_48 - y28_53 - y5_60 - y17_62 - y28_62 - y9_58 - y29_36 - y48_58 - y40_63 - y54_65 - y33_42 - y2_45 - y3_10 - y25_47 - y51_59 - y32_55 - y24_60 - y3_37 - y17_39 - y36_52 - y5_46 - y17_48 - y17_57 - y9_62 - y6_38 - y40_58 - y21_54 - y39_62 - y62_64 - y10_44 - y25_42 - y3_5 - y32_41 - y3_14 - y22_27 - y13_46 - y51_63 - y3_23 - y43_59 - y1_53 - y13_55 - y13_64 - y17_25 - y17_34 - y28_34 - y17_43 - y36_56 - y5_50 - y6_15 - y17_52 - y9_48 - y28_52 - y6_24 - y21_22 - y50_58 - y6_33 - y29_44 - y10_12 - y39_48 - y2_8 - y10_21 - y31_53 - y12_58 - y32_36 - y13_32 - y3_9 - y4_63 - y32_54 - y16_37 - y13_50 - y35_50 - y16_46 - y24_59 - y16_55 - y17_20 - y28_29 - y17_38 - y9_34 - y21_26 - y61_62 - y42_58 - y21_35 - y8_65 - y39_43 - y39_52 - y10_25 - y39_61 - y20_57 - y31_57 - y24_27 - y32_40 - y13_36 - y35_36 - y32_49 - y16_32 - y1_43 - y32_58 - y16_41 - y1_61 - y35_63 - y36_37 - y3_47 - y9_29 - y5_40 - y5_49 - y42_44 - y50_57 - y8_60 - y30_60 - y11_56 - y31_34 - y0_65 - y39_47 - y2_7 - y12_39 - y23_39 - y2_16 - y39_65 - y23_48 - y12_57 - y1_29 - y16_27 - y24_40 - y35_40 - y43_53 - y24_49 - y5_17 - y46_55 - y9_15 - y38_51 - y9_24 - y9_33 - y6_9 - y27_41 - y27_50 - y30_46 - y30_55 - y19_64 - y11_60 - y39_42 - y12_34 - y20_47 - y12_43 - y31_65 - y4_57 - y16_22 - y1_33 - y24_35 - y13_44 - y16_49 - y46_50 - y38_46 - y9_19 - y15_53 - y9_28 - y15_62 - y38_64 - y7_58 - y8_32 - y19_41 - y50_56 - y8_59 - y11_55 - y23_29 - y23_38 - y20_51 - y23_47 - y12_56 - y1_19 - y13_21 - y53_57 - y45_53 - y37_58 - y16_35 - y1_46 - y26_48 - y49_50 - y46_63 - y7_44 - y26_57 - y27_31 - y19_36 - y27_49 - y0_32 - y50_51 - y30_45 - y42_47 - y11_50 - y8_63 - y30_63 - y39_41 - y52_60 - y31_37 - y12_33 - y44_65 - y12_42 - y13_16 - y1_23 - y37_44 - y22_55 - y1_32 - y16_30 - y15_34 - y26_43 - y46_58 - y57_58 - y15_52 - y38_54 - y7_48 - y7_57 - y8_31 - y11_27 - y27_53 - y0_45 - y41_46 - y4_6 - y12_19 - y41_55 - y52_55 - y4_15 - y12_28 - y52_64 - y4_24 - y44_60 - y12_37 - y1_9 - y34_43 - y37_39 - y34_52 - y45_52 - y53_65 - y14_46 - y22_59 - y34_61 - y26_29 - y26_38 - y38_49 - y7_43 - y0_4 - y8_17 - y27_30 - y11_13 - y8_26 - y11_22 - y29_58 - y30_35 - y60_63 - y52_59 - y33_55 - y44_55 - y25_51 - y4_28 - y1_4 - y34_38 - y1_13 - y14_41 - y37_43 - y45_56 - y15_24 - y7_20 - y18_29 - y15_51 - y26_51 - y7_47 - y8_12 - y6_60 - y29_62 - y40_62 - y21_58 - y0_35 - y33_50 - y44_50 - y41_63 - y25_46 - y33_59 - y2_62 - y25_64 - y34_42 - y3_36 - y37_56 - y7_24 - y36_60 - y15_37 - y7_42 - y48_52 - y19_25 - y21_53 - y11_30 - y25_32 - y10_52 - y33_54 - y2_48 - y3_13 - y10_61 - y33_63 - y44_63 - y3_22 - y22_44 - y14_40 - y37_42 - y22_53 - y14_49 - y7_19 - y47_55 - y18_28 - y28_60 - y9_56 - y8_11 - y6_41 - y29_43 - y11_16 - y21_48 - y6_59 - y40_61 - y2_25 - y25_27 - y33_49 - y44_49 - y2_43 - y3_8 - y25_45 - y43_62 - y13_58 - y24_58 - y36_41 - y36_50 - y47_50 - y36_59 - y5_62 - y0_2 - y6_36 - y29_38 - y29_47 - y21_43 - y6_54 - y29_56 - y21_52 - y2_20 - y10_33 - y33_35 - y20_65 - y25_31 - y2_38 - y51_52 - y2_47 - y51_61 - y2_56 - y14_21 - y3_30 - y13_62 - y16_58 - y55_58 - y28_41 - y17_50 - y6_22 - y6_31 - y21_29 - y50_65 - y29_42 - y61_65 - y10_19 - y10_28 - y39_64 - y31_60 - y54_62 - y10_37 - y3_7 - y35_39 - y32_61 - y43_61 - y13_57 - y16_53 - y1_64 - y16_62 - y17_27 - y9_23 - y28_36 - y36_58 - y17_54 - y28_54 - y5_61 - y21_24 - y10_14 - y10_23 - y2_19 - y54_57 - y32_38 - y3_11 - y4_65 - y51_60 - y24_43 - y16_39 - y35_52 - y32_65 - y43_65 - y1_59 - y9_18 - y5_29 - y5_38 - y17_40 - y28_40 - y9_36 - y17_49 - y28_49 - y58_59 - y21_28 - y61_64 - y0_63 - y31_41 - y2_14 - y31_50 - y12_46 - y1_27 - y13_29 - y24_29 - y32_51 - y1_45 - y35_47 - y13_56 - y24_56 - y16_52 - y46_53 - y16_61 - y5_24 - y46_62 - y36_39 - y49_58 - y57_62 - y28_44 - y6_16 - y27_48 - y6_25 - y42_46 - y50_59 - y8_53 - y42_64 - y39_40 - y31_36 - y39_49 - y23_32 - y31_45 - y12_41 - y31_54 - y4_37 - y31_63 - y53_60 - y1_31 - y4_64 - y16_29 - y34_65 - y1_40 - y13_42 - y24_42 - y16_38 - y45_65 - y5_10 - y46_48 - y5_19 - y46_57 - y5_28 - y9_26 - y15_60 - y9_35 - y6_11 - y27_43 - y6_20 - y8_39 - y19_48 - y42_50 - y50_63 - y11_44 - y19_57 - y30_57 - y0_53 - y11_53 - y12_18 - y2_4 - y4_23 - y31_40 - y23_36 - y12_45 - y1_8 - y20_58 - y1_17 - y13_19 - y23_63 - y1_26 - y13_28 - y53_64 - y56_60 - y1_35 - y16_42 - y38_39 - y9_12 - y15_46 - y5_23 - y38_48 - y9_21 - y38_57 - y49_57 - y7_51 - y26_64 - y8_25 - y27_38 - y30_34 - y8_43 - y0_39 - y8_52 - y42_54 - y11_48 - y12_13 - y30_61 - y60_62 - y0_57 - y20_35 - y31_35 - y23_31 - y4_27 - y12_40 - y23_40 - y4_45 - y34_46 - y45_46 - y1_21 - y53_59 - y34_55 - y45_55 - y56_64 - y37_60 - y15_41 - y5_18 - y26_50 - y7_46 - y38_61 - y7_64 - y18_64 - y8_38 - y19_38 - y27_51 - y8_47 - y19_47 - y30_47 - y8_56 - y20_21 - y11_52 - y12_17 - y52_53 - y11_61 - y12_26 - y12_35 - y1_7 - y4_40 - y34_41 - y16_23 - y45_59 - y14_53 - y37_55 - y15_36 - y7_32 - y26_45 - y18_41 - y7_50 - y8_15 - y18_50 - y8_24 - y11_29 - y30_42 - y11_38 - y19_51 - y0_47 - y41_48 - y52_57 - y33_53 - y44_53 - y23_30 - y22_34 - y2_65 - y3_39 - y34_54 - y45_63 - y3_57 - y37_59 - y18_27 - y7_36 - y15_58 - y8_28 - y11_24 - y40_60 - y30_37 - y0_33 - y0_42 - y41_52 - y10_46 - y52_61 - y25_44 - y14_34 - y3_43 - y22_65 - y55_62 - y7_22 - y18_22 - y26_35 - y26_44 - y18_40 - y18_49 - y29_46 - y40_46 - y29_55 - y11_28 - y29_64 - y33_34 - y33_43 - y52_65 - y10_59 - y33_61 - y44_61 - y25_57 - y2_64 - y3_29 - y14_47 - y7_8
 Subject to
C1: x0+x1 <=1 
C2: x0+x2-y0_2 <=1 
C3: x0+x4-y0_4 <=1 
C4: x0+x10 <=1 
C5: x0+x11 <=1 
C6: x0+x13 <=1 
C7: x0+x14-y0_14 <=1 
C8: x0+x18 <=1 
C9: x0+x20 <=1 
C10: x0+x29 <=1 
C11: x0+x30 <=1 
C12: x0+x32-y0_32 <=1 
C13: x0+x33-y0_33 <=1 
C14: x0+x35-y0_35 <=1 
C15: x0+x36 <=1 
C16: x0+x39-y0_39 <=1 
C17: x0+x40 <=1 
C18: x0+x41 <=1 
C19: x0+x42-y0_42 <=1 
C20: x0+x43 <=1 
C21: x0+x44 <=1 
C22: x0+x45-y0_45 <=1 
C23: x0+x47-y0_47 <=1 
C24: x0+x49 <=1 
C25: x0+x51 <=1 
C26: x0+x52 <=1 
C27: x0+x53-y0_53 <=1 
C28: x0+x55 <=1 
C29: x0+x56 <=1 
C30: x0+x57-y0_57 <=1 
C31: x0+x58 <=1 
C32: x0+x60 <=1 
C33: x0+x63-y0_63 <=1 
C34: x0+x65-y0_65 <=1 
C35: x1+x2 <=1 
C36: x1+x4-y1_4 <=1 
C37: x1+x7-y1_7 <=1 
C38: x1+x8-y1_8 <=1 
C39: x1+x9-y1_9 <=1 
C40: x1+x11 <=1 
C41: x1+x12 <=1 
C42: x1+x13-y1_13 <=1 
C43: x1+x15 <=1 
C44: x1+x17-y1_17 <=1 
C45: x1+x19-y1_19 <=1 
C46: x1+x21-y1_21 <=1 
C47: x1+x23-y1_23 <=1 
C48: x1+x25 <=1 
C49: x1+x26-y1_26 <=1 
C50: x1+x27-y1_27 <=1 
C51: x1+x28 <=1 
C52: x1+x29-y1_29 <=1 
C53: x1+x30 <=1 
C54: x1+x31-y1_31 <=1 
C55: x1+x32-y1_32 <=1 
C56: x1+x33-y1_33 <=1 
C57: x1+x35-y1_35 <=1 
C58: x1+x36 <=1 
C59: x1+x40-y1_40 <=1 
C60: x1+x41 <=1 
C61: x1+x43-y1_43 <=1 
C62: x1+x44 <=1 
C63: x1+x45-y1_45 <=1 
C64: x1+x46-y1_46 <=1 
C65: x1+x47 <=1 
C66: x1+x48 <=1 
C67: x1+x51 <=1 
C68: x1+x53-y1_53 <=1 
C69: x1+x55 <=1 
C70: x1+x57 <=1 
C71: x1+x59-y1_59 <=1 
C72: x1+x60 <=1 
C73: x1+x61-y1_61 <=1 
C74: x1+x63 <=1 
C75: x1+x64-y1_64 <=1 
C76: x2+x3 <=1 
C77: x2+x4-y2_4 <=1 
C78: x2+x6 <=1 
C79: x2+x7-y2_7 <=1 
C80: x2+x8-y2_8 <=1 
C81: x2+x9 <=1 
C82: x2+x14-y2_14 <=1 
C83: x2+x15 <=1 
C84: x2+x16-y2_16 <=1 
C85: x2+x18 <=1 
C86: x2+x19-y2_19 <=1 
C87: x2+x20-y2_20 <=1 
C88: x2+x22 <=1 
C89: x2+x23 <=1 
C90: x2+x25-y2_25 <=1 
C91: x2+x27 <=1 
C92: x2+x32 <=1 
C93: x2+x33 <=1 
C94: x2+x34 <=1 
C95: x2+x38-y2_38 <=1 
C96: x2+x39 <=1 
C97: x2+x41-y2_41 <=1 
C98: x2+x43-y2_43 <=1 
C99: x2+x44 <=1 
C100: x2+x45-y2_45 <=1 
C101: x2+x47-y2_47 <=1 
C102: x2+x48-y2_48 <=1 
C103: x2+x55 <=1 
C104: x2+x56-y2_56 <=1 
C105: x2+x58 <=1 
C106: x2+x61 <=1 
C107: x2+x62-y2_62 <=1 
C108: x2+x64-y2_64 <=1 
C109: x2+x65-y2_65 <=1 
C110: x3+x5-y3_5 <=1 
C111: x3+x6-y3_6 <=1 
C112: x3+x7-y3_7 <=1 
C113: x3+x8-y3_8 <=1 
C114: x3+x9-y3_9 <=1 
C115: x3+x10-y3_10 <=1 
C116: x3+x11-y3_11 <=1 
C117: x3+x13-y3_13 <=1 
C118: x3+x14-y3_14 <=1 
C119: x3+x15 <=1 
C120: x3+x16 <=1 
C121: x3+x20 <=1 
C122: x3+x22-y3_22 <=1 
C123: x3+x23-y3_23 <=1 
C124: x3+x24 <=1 
C125: x3+x25 <=1 
C126: x3+x26 <=1 
C127: x3+x28 <=1 
C128: x3+x29-y3_29 <=1 
C129: x3+x30-y3_30 <=1 
C130: x3+x32 <=1 
C131: x3+x33-y3_33 <=1 
C132: x3+x35 <=1 
C133: x3+x36-y3_36 <=1 
C134: x3+x37-y3_37 <=1 
C135: x3+x38 <=1 
C136: x3+x39-y3_39 <=1 
C137: x3+x40 <=1 
C138: x3+x42 <=1 
C139: x3+x43-y3_43 <=1 
C140: x3+x44 <=1 
C141: x3+x45 <=1 
C142: x3+x46 <=1 
C143: x3+x47-y3_47 <=1 
C144: x3+x49 <=1 
C145: x3+x55 <=1 
C146: x3+x57-y3_57 <=1 
C147: x3+x65 <=1 
C148: x4+x6-y4_6 <=1 
C149: x4+x10 <=1 
C150: x4+x12 <=1 
C151: x4+x13 <=1 
C152: x4+x15-y4_15 <=1 
C153: x4+x17 <=1 
C154: x4+x18 <=1 
C155: x4+x20 <=1 
C156: x4+x21 <=1 
C157: x4+x23-y4_23 <=1 
C158: x4+x24-y4_24 <=1 
C159: x4+x27-y4_27 <=1 
C160: x4+x28-y4_28 <=1 
C161: x4+x30 <=1 
C162: x4+x31 <=1 
C163: x4+x32 <=1 
C164: x4+x33 <=1 
C165: x4+x34 <=1 
C166: x4+x37-y4_37 <=1 
C167: x4+x38 <=1 
C168: x4+x40-y4_40 <=1 
C169: x4+x41 <=1 
C170: x4+x45-y4_45 <=1 
C171: x4+x47 <=1 
C172: x4+x49 <=1 
C173: x4+x50 <=1 
C174: x4+x51 <=1 
C175: x4+x52 <=1 
C176: x4+x57-y4_57 <=1 
C177: x4+x60 <=1 
C178: x4+x62 <=1 
C179: x4+x63-y4_63 <=1 
C180: x4+x64-y4_64 <=1 
C181: x4+x65-y4_65 <=1 
C182: x5+x9 <=1 
C183: x5+x10-y5_10 <=1 
C184: x5+x13 <=1 
C185: x5+x15 <=1 
C186: x5+x17-y5_17 <=1 
C187: x5+x18-y5_18 <=1 
C188: x5+x19-y5_19 <=1 
C189: x5+x21 <=1 
C190: x5+x22 <=1 
C191: x5+x23-y5_23 <=1 
C192: x5+x24-y5_24 <=1 
C193: x5+x25 <=1 
C194: x5+x28-y5_28 <=1 
C195: x5+x29-y5_29 <=1 
C196: x5+x30 <=1 
C197: x5+x31 <=1 
C198: x5+x34 <=1 
C199: x5+x38-y5_38 <=1 
C200: x5+x39 <=1 
C201: x5+x40-y5_40 <=1 
C202: x5+x46-y5_46 <=1 
C203: x5+x47 <=1 
C204: x5+x49-y5_49 <=1 
C205: x5+x50-y5_50 <=1 
C206: x5+x51 <=1 
C207: x5+x52 <=1 
C208: x5+x54 <=1 
C209: x5+x55 <=1 
C210: x5+x60-y5_60 <=1 
C211: x5+x61-y5_61 <=1 
C212: x5+x62-y5_62 <=1 
C213: x5+x63 <=1 
C214: x5+x64 <=1 
C215: x6+x7 <=1 
C216: x6+x8 <=1 
C217: x6+x9-y6_9 <=1 
C218: x6+x11-y6_11 <=1 
C219: x6+x12 <=1 
C220: x6+x15-y6_15 <=1 
C221: x6+x16-y6_16 <=1 
C222: x6+x17 <=1 
C223: x6+x20-y6_20 <=1 
C224: x6+x22-y6_22 <=1 
C225: x6+x24-y6_24 <=1 
C226: x6+x25-y6_25 <=1 
C227: x6+x26 <=1 
C228: x6+x31-y6_31 <=1 
C229: x6+x32 <=1 
C230: x6+x33-y6_33 <=1 
C231: x6+x34 <=1 
C232: x6+x35 <=1 
C233: x6+x36-y6_36 <=1 
C234: x6+x38-y6_38 <=1 
C235: x6+x40 <=1 
C236: x6+x41-y6_41 <=1 
C237: x6+x43 <=1 
C238: x6+x46 <=1 
C239: x6+x48-y6_48 <=1 
C240: x6+x49 <=1 
C241: x6+x50 <=1 
C242: x6+x51 <=1 
C243: x6+x54-y6_54 <=1 
C244: x6+x56 <=1 
C245: x6+x57-y6_57 <=1 
C246: x6+x59-y6_59 <=1 
C247: x6+x60-y6_60 <=1 
C248: x6+x61 <=1 
C249: x6+x64 <=1 
C250: x7+x8-y7_8 <=1 
C251: x7+x12-y7_12 <=1 
C252: x7+x14 <=1 
C253: x7+x15 <=1 
C254: x7+x16 <=1 
C255: x7+x19-y7_19 <=1 
C256: x7+x20-y7_20 <=1 
C257: x7+x22-y7_22 <=1 
C258: x7+x24-y7_24 <=1 
C259: x7+x28 <=1 
C260: x7+x30 <=1 
C261: x7+x32-y7_32 <=1 
C262: x7+x33 <=1 
C263: x7+x35-y7_35 <=1 
C264: x7+x36-y7_36 <=1 
C265: x7+x37 <=1 
C266: x7+x38 <=1 
C267: x7+x39 <=1 
C268: x7+x41 <=1 
C269: x7+x42-y7_42 <=1 
C270: x7+x43-y7_43 <=1 
C271: x7+x44-y7_44 <=1 
C272: x7+x45 <=1 
C273: x7+x46-y7_46 <=1 
C274: x7+x47-y7_47 <=1 
C275: x7+x48-y7_48 <=1 
C276: x7+x50-y7_50 <=1 
C277: x7+x51-y7_51 <=1 
C278: x7+x52 <=1 
C279: x7+x56 <=1 
C280: x7+x57-y7_57 <=1 
C281: x7+x58-y7_58 <=1 
C282: x7+x59 <=1 
C283: x7+x61 <=1 
C284: x7+x64-y7_64 <=1 
C285: x7+x65 <=1 
C286: x8+x9 <=1 
C287: x8+x11-y8_11 <=1 
C288: x8+x12-y8_12 <=1 
C289: x8+x15-y8_15 <=1 
C290: x8+x17-y8_17 <=1 
C291: x8+x18 <=1 
C292: x8+x19 <=1 
C293: x8+x22 <=1 
C294: x8+x23 <=1 
C295: x8+x24-y8_24 <=1 
C296: x8+x25-y8_25 <=1 
C297: x8+x26-y8_26 <=1 
C298: x8+x28-y8_28 <=1 
C299: x8+x31-y8_31 <=1 
C300: x8+x32-y8_32 <=1 
C301: x8+x33 <=1 
C302: x8+x36 <=1 
C303: x8+x38-y8_38 <=1 
C304: x8+x39-y8_39 <=1 
C305: x8+x43-y8_43 <=1 
C306: x8+x46 <=1 
C307: x8+x47-y8_47 <=1 
C308: x8+x51 <=1 
C309: x8+x52-y8_52 <=1 
C310: x8+x53-y8_53 <=1 
C311: x8+x54 <=1 
C312: x8+x56-y8_56 <=1 
C313: x8+x58 <=1 
C314: x8+x59-y8_59 <=1 
C315: x8+x60-y8_60 <=1 
C316: x8+x61 <=1 
C317: x8+x63-y8_63 <=1 
C318: x8+x64 <=1 
C319: x8+x65-y8_65 <=1 
C320: x9+x10 <=1 
C321: x9+x11 <=1 
C322: x9+x12-y9_12 <=1 
C323: x9+x15-y9_15 <=1 
C324: x9+x18-y9_18 <=1 
C325: x9+x19-y9_19 <=1 
C326: x9+x21-y9_21 <=1 
C327: x9+x23-y9_23 <=1 
C328: x9+x24-y9_24 <=1 
C329: x9+x25 <=1 
C330: x9+x26-y9_26 <=1 
C331: x9+x28-y9_28 <=1 
C332: x9+x29-y9_29 <=1 
C333: x9+x30 <=1 
C334: x9+x33-y9_33 <=1 
C335: x9+x34-y9_34 <=1 
C336: x9+x35-y9_35 <=1 
C337: x9+x36-y9_36 <=1 
C338: x9+x37 <=1 
C339: x9+x43 <=1 
C340: x9+x44 <=1 
C341: x9+x45 <=1 
C342: x9+x46 <=1 
C343: x9+x47 <=1 
C344: x9+x48-y9_48 <=1 
C345: x9+x51 <=1 
C346: x9+x52 <=1 
C347: x9+x56-y9_56 <=1 
C348: x9+x57 <=1 
C349: x9+x58-y9_58 <=1 
C350: x9+x60 <=1 
C351: x9+x62-y9_62 <=1 
C352: x9+x63 <=1 
C353: x9+x64 <=1 
C354: x9+x65 <=1 
C355: x10+x12-y10_12 <=1 
C356: x10+x13 <=1 
C357: x10+x14-y10_14 <=1 
C358: x10+x19-y10_19 <=1 
C359: x10+x20 <=1 
C360: x10+x21-y10_21 <=1 
C361: x10+x23-y10_23 <=1 
C362: x10+x25-y10_25 <=1 
C363: x10+x27-y10_27 <=1 
C364: x10+x28-y10_28 <=1 
C365: x10+x29 <=1 
C366: x10+x31 <=1 
C367: x10+x32 <=1 
C368: x10+x33-y10_33 <=1 
C369: x10+x35 <=1 
C370: x10+x37-y10_37 <=1 
C371: x10+x41 <=1 
C372: x10+x42 <=1 
C373: x10+x43 <=1 
C374: x10+x44-y10_44 <=1 
C375: x10+x45 <=1 
C376: x10+x46-y10_46 <=1 
C377: x10+x49 <=1 
C378: x10+x50 <=1 
C379: x10+x52-y10_52 <=1 
C380: x10+x53 <=1 
C381: x10+x54 <=1 
C382: x10+x55 <=1 
C383: x10+x59-y10_59 <=1 
C384: x10+x61-y10_61 <=1 
C385: x10+x65 <=1 
C386: x11+x12 <=1 
C387: x11+x13-y11_13 <=1 
C388: x11+x14-y11_14 <=1 
C389: x11+x15 <=1 
C390: x11+x16-y11_16 <=1 
C391: x11+x18 <=1 
C392: x11+x19 <=1 
C393: x11+x21 <=1 
C394: x11+x22-y11_22 <=1 
C395: x11+x23-y11_23 <=1 
C396: x11+x24-y11_24 <=1 
C397: x11+x27-y11_27 <=1 
C398: x11+x28-y11_28 <=1 
C399: x11+x29-y11_29 <=1 
C400: x11+x30-y11_30 <=1 
C401: x11+x31 <=1 
C402: x11+x32 <=1 
C403: x11+x34 <=1 
C404: x11+x35 <=1 
C405: x11+x36 <=1 
C406: x11+x37 <=1 
C407: x11+x38-y11_38 <=1 
C408: x11+x44-y11_44 <=1 
C409: x11+x48-y11_48 <=1 
C410: x11+x49 <=1 
C411: x11+x50-y11_50 <=1 
C412: x11+x51 <=1 
C413: x11+x52-y11_52 <=1 
C414: x11+x53-y11_53 <=1 
C415: x11+x54 <=1 
C416: x11+x55-y11_55 <=1 
C417: x11+x56-y11_56 <=1 
C418: x11+x60-y11_60 <=1 
C419: x11+x61-y11_61 <=1 
C420: x11+x62 <=1 
C421: x11+x64 <=1 
C422: x12+x13-y12_13 <=1 
C423: x12+x16 <=1 
C424: x12+x17-y12_17 <=1 
C425: x12+x18-y12_18 <=1 
C426: x12+x19-y12_19 <=1 
C427: x12+x21 <=1 
C428: x12+x22 <=1 
C429: x12+x26-y12_26 <=1 
C430: x12+x28-y12_28 <=1 
C431: x12+x32 <=1 
C432: x12+x33-y12_33 <=1 
C433: x12+x34-y12_34 <=1 
C434: x12+x35-y12_35 <=1 
C435: x12+x36 <=1 
C436: x12+x37-y12_37 <=1 
C437: x12+x39-y12_39 <=1 
C438: x12+x40-y12_40 <=1 
C439: x12+x41-y12_41 <=1 
C440: x12+x42-y12_42 <=1 
C441: x12+x43-y12_43 <=1 
C442: x12+x45-y12_45 <=1 
C443: x12+x46-y12_46 <=1 
C444: x12+x47 <=1 
C445: x12+x48 <=1 
C446: x12+x51 <=1 
C447: x12+x52 <=1 
C448: x12+x53 <=1 
C449: x12+x56-y12_56 <=1 
C450: x12+x57-y12_57 <=1 
C451: x12+x58-y12_58 <=1 
C452: x12+x59 <=1 
C453: x12+x60 <=1 
C454: x12+x63 <=1 
C455: x12+x65 <=1 
C456: x13+x14 <=1 
C457: x13+x16-y13_16 <=1 
C458: x13+x17 <=1 
C459: x13+x19-y13_19 <=1 
C460: x13+x21-y13_21 <=1 
C461: x13+x22 <=1 
C462: x13+x28-y13_28 <=1 
C463: x13+x29-y13_29 <=1 
C464: x13+x32-y13_32 <=1 
C465: x13+x33 <=1 
C466: x13+x35 <=1 
C467: x13+x36-y13_36 <=1 
C468: x13+x38 <=1 
C469: x13+x39 <=1 
C470: x13+x41 <=1 
C471: x13+x42-y13_42 <=1 
C472: x13+x44-y13_44 <=1 
C473: x13+x45 <=1 
C474: x13+x46-y13_46 <=1 
C475: x13+x48 <=1 
C476: x13+x50-y13_50 <=1 
C477: x13+x51 <=1 
C478: x13+x55-y13_55 <=1 
C479: x13+x56-y13_56 <=1 
C480: x13+x57-y13_57 <=1 
C481: x13+x58-y13_58 <=1 
C482: x13+x60 <=1 
C483: x13+x62-y13_62 <=1 
C484: x13+x64-y13_64 <=1 
C485: x13+x65 <=1 
C486: x14+x15 <=1 
C487: x14+x20 <=1 
C488: x14+x21-y14_21 <=1 
C489: x14+x22 <=1 
C490: x14+x24-y14_24 <=1 
C491: x14+x31 <=1 
C492: x14+x34-y14_34 <=1 
C493: x14+x37 <=1 
C494: x14+x38 <=1 
C495: x14+x40-y14_40 <=1 
C496: x14+x41-y14_41 <=1 
C497: x14+x46-y14_46 <=1 
C498: x14+x47-y14_47 <=1 
C499: x14+x49-y14_49 <=1 
C500: x14+x51 <=1 
C501: x14+x52 <=1 
C502: x14+x53-y14_53 <=1 
C503: x14+x54 <=1 
C504: x14+x56 <=1 
C505: x14+x59 <=1 
C506: x14+x60 <=1 
C507: x14+x61 <=1 
C508: x14+x62 <=1 
C509: x14+x63 <=1 
C510: x15+x22 <=1 
C511: x15+x23 <=1 
C512: x15+x24-y15_24 <=1 
C513: x15+x25 <=1 
C514: x15+x26 <=1 
C515: x15+x28 <=1 
C516: x15+x29 <=1 
C517: x15+x30 <=1 
C518: x15+x32 <=1 
C519: x15+x34-y15_34 <=1 
C520: x15+x35 <=1 
C521: x15+x36-y15_36 <=1 
C522: x15+x37-y15_37 <=1 
C523: x15+x38 <=1 
C524: x15+x39-y15_39 <=1 
C525: x15+x41-y15_41 <=1 
C526: x15+x42 <=1 
C527: x15+x43 <=1 
C528: x15+x44 <=1 
C529: x15+x45 <=1 
C530: x15+x46-y15_46 <=1 
C531: x15+x47 <=1 
C532: x15+x48 <=1 
C533: x15+x49 <=1 
C534: x15+x50 <=1 
C535: x15+x51-y15_51 <=1 
C536: x15+x52-y15_52 <=1 
C537: x15+x53-y15_53 <=1 
C538: x15+x54 <=1 
C539: x15+x55 <=1 
C540: x15+x56 <=1 
C541: x15+x58-y15_58 <=1 
C542: x15+x59 <=1 
C543: x15+x60-y15_60 <=1 
C544: x15+x61 <=1 
C545: x15+x62-y15_62 <=1 
C546: x15+x65 <=1 
C547: x16+x19 <=1 
C548: x16+x22-y16_22 <=1 
C549: x16+x23-y16_23 <=1 
C550: x16+x24 <=1 
C551: x16+x25 <=1 
C552: x16+x26 <=1 
C553: x16+x27-y16_27 <=1 
C554: x16+x29-y16_29 <=1 
C555: x16+x30-y16_30 <=1 
C556: x16+x32-y16_32 <=1 
C557: x16+x35-y16_35 <=1 
C558: x16+x36 <=1 
C559: x16+x37-y16_37 <=1 
C560: x16+x38-y16_38 <=1 
C561: x16+x39-y16_39 <=1 
C562: x16+x41-y16_41 <=1 
C563: x16+x42-y16_42 <=1 
C564: x16+x43 <=1 
C565: x16+x44 <=1 
C566: x16+x46-y16_46 <=1 
C567: x16+x47 <=1 
C568: x16+x48 <=1 
C569: x16+x49-y16_49 <=1 
C570: x16+x52-y16_52 <=1 
C571: x16+x53-y16_53 <=1 
C572: x16+x54 <=1 
C573: x16+x55-y16_55 <=1 
C574: x16+x56 <=1 
C575: x16+x58-y16_58 <=1 
C576: x16+x61-y16_61 <=1 
C577: x16+x62-y16_62 <=1 
C578: x16+x63 <=1 
C579: x16+x64 <=1 
C580: x16+x65 <=1 
C581: x17+x20-y17_20 <=1 
C582: x17+x21 <=1 
C583: x17+x22 <=1 
C584: x17+x24 <=1 
C585: x17+x25-y17_25 <=1 
C586: x17+x26 <=1 
C587: x17+x27-y17_27 <=1 
C588: x17+x28 <=1 
C589: x17+x29 <=1 
C590: x17+x31 <=1 
C591: x17+x33 <=1 
C592: x17+x34-y17_34 <=1 
C593: x17+x38-y17_38 <=1 
C594: x17+x39-y17_39 <=1 
C595: x17+x40-y17_40 <=1 
C596: x17+x43-y17_43 <=1 
C597: x17+x48-y17_48 <=1 
C598: x17+x49-y17_49 <=1 
C599: x17+x50-y17_50 <=1 
C600: x17+x51 <=1 
C601: x17+x52-y17_52 <=1 
C602: x17+x53 <=1 
C603: x17+x54-y17_54 <=1 
C604: x17+x57-y17_57 <=1 
C605: x17+x58-y17_58 <=1 
C606: x17+x59 <=1 
C607: x17+x62-y17_62 <=1 
C608: x17+x63 <=1 
C609: x18+x19 <=1 
C610: x18+x21 <=1 
C611: x18+x22-y18_22 <=1 
C612: x18+x24 <=1 
C613: x18+x26 <=1 
C614: x18+x27-y18_27 <=1 
C615: x18+x28-y18_28 <=1 
C616: x18+x29-y18_29 <=1 
C617: x18+x31 <=1 
C618: x18+x33 <=1 
C619: x18+x34 <=1 
C620: x18+x37 <=1 
C621: x18+x40-y18_40 <=1 
C622: x18+x41-y18_41 <=1 
C623: x18+x44 <=1 
C624: x18+x45 <=1 
C625: x18+x46 <=1 
C626: x18+x47 <=1 
C627: x18+x49-y18_49 <=1 
C628: x18+x50-y18_50 <=1 
C629: x18+x52 <=1 
C630: x18+x54 <=1 
C631: x18+x55 <=1 
C632: x18+x61 <=1 
C633: x18+x63 <=1 
C634: x18+x64-y18_64 <=1 
C635: x19+x20 <=1 
C636: x19+x21 <=1 
C637: x19+x22 <=1 
C638: x19+x23 <=1 
C639: x19+x25-y19_25 <=1 
C640: x19+x26 <=1 
C641: x19+x31 <=1 
C642: x19+x32 <=1 
C643: x19+x35 <=1 
C644: x19+x36-y19_36 <=1 
C645: x19+x38-y19_38 <=1 
C646: x19+x40 <=1 
C647: x19+x41-y19_41 <=1 
C648: x19+x43 <=1 
C649: x19+x44 <=1 
C650: x19+x46 <=1 
C651: x19+x47-y19_47 <=1 
C652: x19+x48-y19_48 <=1 
C653: x19+x51-y19_51 <=1 
C654: x19+x52 <=1 
C655: x19+x57-y19_57 <=1 
C656: x19+x58 <=1 
C657: x19+x60 <=1 
C658: x19+x61 <=1 
C659: x19+x62 <=1 
C660: x19+x64-y19_64 <=1 
C661: x20+x21-y20_21 <=1 
C662: x20+x22 <=1 
C663: x20+x24 <=1 
C664: x20+x25 <=1 
C665: x20+x28 <=1 
C666: x20+x32 <=1 
C667: x20+x34 <=1 
C668: x20+x35-y20_35 <=1 
C669: x20+x39 <=1 
C670: x20+x40 <=1 
C671: x20+x41 <=1 
C672: x20+x42 <=1 
C673: x20+x43 <=1 
C674: x20+x45 <=1 
C675: x20+x46 <=1 
C676: x20+x47-y20_47 <=1 
C677: x20+x48 <=1 
C678: x20+x51-y20_51 <=1 
C679: x20+x52 <=1 
C680: x20+x53 <=1 
C681: x20+x57-y20_57 <=1 
C682: x20+x58-y20_58 <=1 
C683: x20+x61 <=1 
C684: x20+x65-y20_65 <=1 
C685: x21+x22-y21_22 <=1 
C686: x21+x23 <=1 
C687: x21+x24-y21_24 <=1 
C688: x21+x25 <=1 
C689: x21+x26-y21_26 <=1 
C690: x21+x28-y21_28 <=1 
C691: x21+x29-y21_29 <=1 
C692: x21+x35-y21_35 <=1 
C693: x21+x38 <=1 
C694: x21+x43-y21_43 <=1 
C695: x21+x48-y21_48 <=1 
C696: x21+x49 <=1 
C697: x21+x50 <=1 
C698: x21+x52-y21_52 <=1 
C699: x21+x53-y21_53 <=1 
C700: x21+x54-y21_54 <=1 
C701: x21+x56 <=1 
C702: x21+x58-y21_58 <=1 
C703: x21+x59 <=1 
C704: x21+x62 <=1 
C705: x22+x23 <=1 
C706: x22+x25 <=1 
C707: x22+x26 <=1 
C708: x22+x27-y22_27 <=1 
C709: x22+x29 <=1 
C710: x22+x32 <=1 
C711: x22+x34-y22_34 <=1 
C712: x22+x37 <=1 
C713: x22+x44-y22_44 <=1 
C714: x22+x49 <=1 
C715: x22+x53-y22_53 <=1 
C716: x22+x54 <=1 
C717: x22+x55-y22_55 <=1 
C718: x22+x57 <=1 
C719: x22+x59-y22_59 <=1 
C720: x22+x60 <=1 
C721: x22+x64 <=1 
C722: x22+x65-y22_65 <=1 
C723: x23+x25 <=1 
C724: x23+x28 <=1 
C725: x23+x29-y23_29 <=1 
C726: x23+x30-y23_30 <=1 
C727: x23+x31-y23_31 <=1 
C728: x23+x32-y23_32 <=1 
C729: x23+x33 <=1 
C730: x23+x36-y23_36 <=1 
C731: x23+x38-y23_38 <=1 
C732: x23+x39-y23_39 <=1 
C733: x23+x40-y23_40 <=1 
C734: x23+x42 <=1 
C735: x23+x43 <=1 
C736: x23+x44 <=1 
C737: x23+x46 <=1 
C738: x23+x47-y23_47 <=1 
C739: x23+x48-y23_48 <=1 
C740: x23+x51 <=1 
C741: x23+x52 <=1 
C742: x23+x55 <=1 
C743: x23+x61 <=1 
C744: x23+x63-y23_63 <=1 
C745: x23+x64 <=1 
C746: x24+x25 <=1 
C747: x24+x26 <=1 
C748: x24+x27-y24_27 <=1 
C749: x24+x29-y24_29 <=1 
C750: x24+x31 <=1 
C751: x24+x35-y24_35 <=1 
C752: x24+x38 <=1 
C753: x24+x40-y24_40 <=1 
C754: x24+x41 <=1 
C755: x24+x42-y24_42 <=1 
C756: x24+x43-y24_43 <=1 
C757: x24+x46 <=1 
C758: x24+x48 <=1 
C759: x24+x49-y24_49 <=1 
C760: x24+x56-y24_56 <=1 
C761: x24+x57 <=1 
C762: x24+x58-y24_58 <=1 
C763: x24+x59-y24_59 <=1 
C764: x24+x60-y24_60 <=1 
C765: x24+x62 <=1 
C766: x24+x63 <=1 
C767: x24+x64 <=1 
C768: x24+x65-y24_65 <=1 
C769: x25+x27-y25_27 <=1 
C770: x25+x31-y25_31 <=1 
C771: x25+x32-y25_32 <=1 
C772: x25+x36 <=1 
C773: x25+x37 <=1 
C774: x25+x38 <=1 
C775: x25+x39 <=1 
C776: x25+x42-y25_42 <=1 
C777: x25+x44-y25_44 <=1 
C778: x25+x45-y25_45 <=1 
C779: x25+x46-y25_46 <=1 
C780: x25+x47-y25_47 <=1 
C781: x25+x48 <=1 
C782: x25+x50 <=1 
C783: x25+x51-y25_51 <=1 
C784: x25+x52 <=1 
C785: x25+x54 <=1 
C786: x25+x57-y25_57 <=1 
C787: x25+x58 <=1 
C788: x25+x63 <=1 
C789: x25+x64-y25_64 <=1 
C790: x26+x27 <=1 
C791: x26+x28 <=1 
C792: x26+x29-y26_29 <=1 
C793: x26+x30-y26_30 <=1 
C794: x26+x35-y26_35 <=1 
C795: x26+x38-y26_38 <=1 
C796: x26+x42 <=1 
C797: x26+x43-y26_43 <=1 
C798: x26+x44-y26_44 <=1 
C799: x26+x45-y26_45 <=1 
C800: x26+x46 <=1 
C801: x26+x48-y26_48 <=1 
C802: x26+x50-y26_50 <=1 
C803: x26+x51-y26_51 <=1 
C804: x26+x52 <=1 
C805: x26+x55 <=1 
C806: x26+x56 <=1 
C807: x26+x57-y26_57 <=1 
C808: x26+x60 <=1 
C809: x26+x62 <=1 
C810: x26+x63 <=1 
C811: x26+x64-y26_64 <=1 
C812: x26+x65 <=1 
C813: x27+x28 <=1 
C814: x27+x30-y27_30 <=1 
C815: x27+x31-y27_31 <=1 
C816: x27+x32 <=1 
C817: x27+x33 <=1 
C818: x27+x35 <=1 
C819: x27+x36 <=1 
C820: x27+x38-y27_38 <=1 
C821: x27+x39 <=1 
C822: x27+x41-y27_41 <=1 
C823: x27+x43-y27_43 <=1 
C824: x27+x45 <=1 
C825: x27+x46 <=1 
C826: x27+x48-y27_48 <=1 
C827: x27+x49-y27_49 <=1 
C828: x27+x50-y27_50 <=1 
C829: x27+x51-y27_51 <=1 
C830: x27+x53-y27_53 <=1 
C831: x27+x55 <=1 
C832: x27+x60 <=1 
C833: x27+x61 <=1 
C834: x27+x65 <=1 
C835: x28+x29-y28_29 <=1 
C836: x28+x30 <=1 
C837: x28+x31 <=1 
C838: x28+x33 <=1 
C839: x28+x34-y28_34 <=1 
C840: x28+x36-y28_36 <=1 
C841: x28+x37 <=1 
C842: x28+x39 <=1 
C843: x28+x40-y28_40 <=1 
C844: x28+x41-y28_41 <=1 
C845: x28+x43 <=1 
C846: x28+x44-y28_44 <=1 
C847: x28+x45 <=1 
C848: x28+x48 <=1 
C849: x28+x49-y28_49 <=1 
C850: x28+x52-y28_52 <=1 
C851: x28+x53-y28_53 <=1 
C852: x28+x54-y28_54 <=1 
C853: x28+x55 <=1 
C854: x28+x56 <=1 
C855: x28+x57 <=1 
C856: x28+x58 <=1 
C857: x28+x60-y28_60 <=1 
C858: x28+x61 <=1 
C859: x28+x62-y28_62 <=1 
C860: x28+x63 <=1 
C861: x28+x65 <=1 
C862: x29+x30 <=1 
C863: x29+x31 <=1 
C864: x29+x32-y29_32 <=1 
C865: x29+x36-y29_36 <=1 
C866: x29+x37 <=1 
C867: x29+x38-y29_38 <=1 
C868: x29+x40 <=1 
C869: x29+x42-y29_42 <=1 
C870: x29+x43-y29_43 <=1 
C871: x29+x44-y29_44 <=1 
C872: x29+x46-y29_46 <=1 
C873: x29+x47-y29_47 <=1 
C874: x29+x50-y29_50 <=1 
C875: x29+x52 <=1 
C876: x29+x55-y29_55 <=1 
C877: x29+x56-y29_56 <=1 
C878: x29+x57 <=1 
C879: x29+x58-y29_58 <=1 
C880: x29+x59-y29_59 <=1 
C881: x29+x60 <=1 
C882: x29+x62-y29_62 <=1 
C883: x29+x64-y29_64 <=1 
C884: x30+x32 <=1 
C885: x30+x33 <=1 
C886: x30+x34-y30_34 <=1 
C887: x30+x35-y30_35 <=1 
C888: x30+x37-y30_37 <=1 
C889: x30+x42-y30_42 <=1 
C890: x30+x43 <=1 
C891: x30+x44 <=1 
C892: x30+x45-y30_45 <=1 
C893: x30+x46-y30_46 <=1 
C894: x30+x47-y30_47 <=1 
C895: x30+x48 <=1 
C896: x30+x49 <=1 
C897: x30+x53 <=1 
C898: x30+x55-y30_55 <=1 
C899: x30+x56 <=1 
C900: x30+x57-y30_57 <=1 
C901: x30+x58 <=1 
C902: x30+x60-y30_60 <=1 
C903: x30+x61-y30_61 <=1 
C904: x30+x63-y30_63 <=1 
C905: x30+x65 <=1 
C906: x31+x32 <=1 
C907: x31+x34-y31_34 <=1 
C908: x31+x35-y31_35 <=1 
C909: x31+x36-y31_36 <=1 
C910: x31+x37-y31_37 <=1 
C911: x31+x40-y31_40 <=1 
C912: x31+x41-y31_41 <=1 
C913: x31+x42 <=1 
C914: x31+x45-y31_45 <=1 
C915: x31+x46 <=1 
C916: x31+x47 <=1 
C917: x31+x50-y31_50 <=1 
C918: x31+x52 <=1 
C919: x31+x53-y31_53 <=1 
C920: x31+x54-y31_54 <=1 
C921: x31+x57-y31_57 <=1 
C922: x31+x60-y31_60 <=1 
C923: x31+x63-y31_63 <=1 
C924: x31+x64 <=1 
C925: x31+x65-y31_65 <=1 
C926: x32+x33 <=1 
C927: x32+x35 <=1 
C928: x32+x36-y32_36 <=1 
C929: x32+x38-y32_38 <=1 
C930: x32+x40-y32_40 <=1 
C931: x32+x41-y32_41 <=1 
C932: x32+x42 <=1 
C933: x32+x45 <=1 
C934: x32+x46 <=1 
C935: x32+x49-y32_49 <=1 
C936: x32+x50 <=1 
C937: x32+x51-y32_51 <=1 
C938: x32+x52 <=1 
C939: x32+x54-y32_54 <=1 
C940: x32+x55-y32_55 <=1 
C941: x32+x58-y32_58 <=1 
C942: x32+x61-y32_61 <=1 
C943: x32+x63 <=1 
C944: x32+x64 <=1 
C945: x32+x65-y32_65 <=1 
C946: x33+x34-y33_34 <=1 
C947: x33+x35-y33_35 <=1 
C948: x33+x36 <=1 
C949: x33+x37 <=1 
C950: x33+x38 <=1 
C951: x33+x39 <=1 
C952: x33+x42-y33_42 <=1 
C953: x33+x43-y33_43 <=1 
C954: x33+x47-y33_47 <=1 
C955: x33+x48 <=1 
C956: x33+x49-y33_49 <=1 
C957: x33+x50-y33_50 <=1 
C958: x33+x51 <=1 
C959: x33+x52 <=1 
C960: x33+x53-y33_53 <=1 
C961: x33+x54-y33_54 <=1 
C962: x33+x55-y33_55 <=1 
C963: x33+x58 <=1 
C964: x33+x59-y33_59 <=1 
C965: x33+x60 <=1 
C966: x33+x61-y33_61 <=1 
C967: x33+x63-y33_63 <=1 
C968: x33+x65 <=1 
C969: x34+x35 <=1 
C970: x34+x37 <=1 
C971: x34+x38-y34_38 <=1 
C972: x34+x39 <=1 
C973: x34+x41-y34_41 <=1 
C974: x34+x42-y34_42 <=1 
C975: x34+x43-y34_43 <=1 
C976: x34+x44 <=1 
C977: x34+x45 <=1 
C978: x34+x46-y34_46 <=1 
C979: x34+x48 <=1 
C980: x34+x51 <=1 
C981: x34+x52-y34_52 <=1 
C982: x34+x54-y34_54 <=1 
C983: x34+x55-y34_55 <=1 
C984: x34+x58 <=1 
C985: x34+x59 <=1 
C986: x34+x61-y34_61 <=1 
C987: x34+x64 <=1 
C988: x34+x65-y34_65 <=1 
C989: x35+x36-y35_36 <=1 
C990: x35+x38 <=1 
C991: x35+x39-y35_39 <=1 
C992: x35+x40-y35_40 <=1 
C993: x35+x41 <=1 
C994: x35+x42 <=1 
C995: x35+x45 <=1 
C996: x35+x46 <=1 
C997: x35+x47-y35_47 <=1 
C998: x35+x48 <=1 
C999: x35+x49 <=1 
C1000: x35+x50-y35_50 <=1 
C1001: x35+x52-y35_52 <=1 
C1002: x35+x54 <=1 
C1003: x35+x62 <=1 
C1004: x35+x63-y35_63 <=1 
C1005: x35+x64 <=1 
C1006: x36+x37-y36_37 <=1 
C1007: x36+x38 <=1 
C1008: x36+x39-y36_39 <=1 
C1009: x36+x41-y36_41 <=1 
C1010: x36+x42 <=1 
C1011: x36+x50-y36_50 <=1 
C1012: x36+x51 <=1 
C1013: x36+x52-y36_52 <=1 
C1014: x36+x53 <=1 
C1015: x36+x54 <=1 
C1016: x36+x55 <=1 
C1017: x36+x56-y36_56 <=1 
C1018: x36+x57 <=1 
C1019: x36+x58-y36_58 <=1 
C1020: x36+x59-y36_59 <=1 
C1021: x36+x60-y36_60 <=1 
C1022: x36+x62-y36_62 <=1 
C1023: x36+x63 <=1 
C1024: x37+x39-y37_39 <=1 
C1025: x37+x40 <=1 
C1026: x37+x41 <=1 
C1027: x37+x42-y37_42 <=1 
C1028: x37+x43-y37_43 <=1 
C1029: x37+x44-y37_44 <=1 
C1030: x37+x45 <=1 
C1031: x37+x46 <=1 
C1032: x37+x47 <=1 
C1033: x37+x49 <=1 
C1034: x37+x50 <=1 
C1035: x37+x53 <=1 
C1036: x37+x55-y37_55 <=1 
C1037: x37+x56-y37_56 <=1 
C1038: x37+x58-y37_58 <=1 
C1039: x37+x59-y37_59 <=1 
C1040: x37+x60-y37_60 <=1 
C1041: x37+x62 <=1 
C1042: x37+x64 <=1 
C1043: x38+x39-y38_39 <=1 
C1044: x38+x41 <=1 
C1045: x38+x45 <=1 
C1046: x38+x46-y38_46 <=1 
C1047: x38+x48-y38_48 <=1 
C1048: x38+x49-y38_49 <=1 
C1049: x38+x50 <=1 
C1050: x38+x51-y38_51 <=1 
C1051: x38+x52 <=1 
C1052: x38+x54-y38_54 <=1 
C1053: x38+x55 <=1 
C1054: x38+x57-y38_57 <=1 
C1055: x38+x60 <=1 
C1056: x38+x61-y38_61 <=1 
C1057: x38+x62 <=1 
C1058: x38+x64-y38_64 <=1 
C1059: x38+x65 <=1 
C1060: x39+x40-y39_40 <=1 
C1061: x39+x41-y39_41 <=1 
C1062: x39+x42-y39_42 <=1 
C1063: x39+x43-y39_43 <=1 
C1064: x39+x46 <=1 
C1065: x39+x47-y39_47 <=1 
C1066: x39+x48-y39_48 <=1 
C1067: x39+x49-y39_49 <=1 
C1068: x39+x50 <=1 
C1069: x39+x52-y39_52 <=1 
C1070: x39+x56 <=1 
C1071: x39+x59 <=1 
C1072: x39+x61-y39_61 <=1 
C1073: x39+x62-y39_62 <=1 
C1074: x39+x63 <=1 
C1075: x39+x64-y39_64 <=1 
C1076: x39+x65-y39_65 <=1 
C1077: x40+x41-y40_41 <=1 
C1078: x40+x43 <=1 
C1079: x40+x44 <=1 
C1080: x40+x45 <=1 
C1081: x40+x46-y40_46 <=1 
C1082: x40+x48 <=1 
C1083: x40+x49 <=1 
C1084: x40+x50 <=1 
C1085: x40+x51 <=1 
C1086: x40+x55 <=1 
C1087: x40+x58-y40_58 <=1 
C1088: x40+x59-y40_59 <=1 
C1089: x40+x60-y40_60 <=1 
C1090: x40+x61-y40_61 <=1 
C1091: x40+x62-y40_62 <=1 
C1092: x40+x63-y40_63 <=1 
C1093: x41+x42-y41_42 <=1 
C1094: x41+x43 <=1 
C1095: x41+x45 <=1 
C1096: x41+x46-y41_46 <=1 
C1097: x41+x47 <=1 
C1098: x41+x48-y41_48 <=1 
C1099: x41+x52-y41_52 <=1 
C1100: x41+x55-y41_55 <=1 
C1101: x41+x61 <=1 
C1102: x41+x62 <=1 
C1103: x41+x63-y41_63 <=1 
C1104: x41+x65 <=1 
C1105: x42+x43 <=1 
C1106: x42+x44-y42_44 <=1 
C1107: x42+x45 <=1 
C1108: x42+x46-y42_46 <=1 
C1109: x42+x47-y42_47 <=1 
C1110: x42+x50-y42_50 <=1 
C1111: x42+x51 <=1 
C1112: x42+x53 <=1 
C1113: x42+x54-y42_54 <=1 
C1114: x42+x56 <=1 
C1115: x42+x58-y42_58 <=1 
C1116: x42+x59 <=1 
C1117: x42+x61 <=1 
C1118: x42+x63 <=1 
C1119: x42+x64-y42_64 <=1 
C1120: x42+x65 <=1 
C1121: x43+x49 <=1 
C1122: x43+x53-y43_53 <=1 
C1123: x43+x54 <=1 
C1124: x43+x55 <=1 
C1125: x43+x57 <=1 
C1126: x43+x59-y43_59 <=1 
C1127: x43+x61-y43_61 <=1 
C1128: x43+x62-y43_62 <=1 
C1129: x43+x63 <=1 
C1130: x43+x65-y43_65 <=1 
C1131: x44+x45 <=1 
C1132: x44+x46 <=1 
C1133: x44+x47-y44_47 <=1 
C1134: x44+x49-y44_49 <=1 
C1135: x44+x50-y44_50 <=1 
C1136: x44+x52 <=1 
C1137: x44+x53-y44_53 <=1 
C1138: x44+x55-y44_55 <=1 
C1139: x44+x57 <=1 
C1140: x44+x59 <=1 
C1141: x44+x60-y44_60 <=1 
C1142: x44+x61-y44_61 <=1 
C1143: x44+x63-y44_63 <=1 
C1144: x44+x64 <=1 
C1145: x44+x65-y44_65 <=1 
C1146: x45+x46-y45_46 <=1 
C1147: x45+x47 <=1 
C1148: x45+x50 <=1 
C1149: x45+x52-y45_52 <=1 
C1150: x45+x53-y45_53 <=1 
C1151: x45+x54 <=1 
C1152: x45+x55-y45_55 <=1 
C1153: x45+x56-y45_56 <=1 
C1154: x45+x59-y45_59 <=1 
C1155: x45+x60 <=1 
C1156: x45+x63-y45_63 <=1 
C1157: x45+x65-y45_65 <=1 
C1158: x46+x48-y46_48 <=1 
C1159: x46+x49 <=1 
C1160: x46+x50-y46_50 <=1 
C1161: x46+x53-y46_53 <=1 
C1162: x46+x55-y46_55 <=1 
C1163: x46+x56 <=1 
C1164: x46+x57-y46_57 <=1 
C1165: x46+x58-y46_58 <=1 
C1166: x46+x62-y46_62 <=1 
C1167: x46+x63-y46_63 <=1 
C1168: x46+x65 <=1 
C1169: x47+x48-y47_48 <=1 
C1170: x47+x50-y47_50 <=1 
C1171: x47+x51 <=1 
C1172: x47+x52 <=1 
C1173: x47+x55-y47_55 <=1 
C1174: x47+x57 <=1 
C1175: x47+x62 <=1 
C1176: x47+x63 <=1 
C1177: x47+x64 <=1 
C1178: x48+x51 <=1 
C1179: x48+x52-y48_52 <=1 
C1180: x48+x54-y48_54 <=1 
C1181: x48+x55 <=1 
C1182: x48+x56 <=1 
C1183: x48+x58-y48_58 <=1 
C1184: x48+x61 <=1 
C1185: x48+x62 <=1 
C1186: x48+x63-y48_63 <=1 
C1187: x49+x50-y49_50 <=1 
C1188: x49+x51 <=1 
C1189: x49+x53 <=1 
C1190: x49+x55 <=1 
C1191: x49+x56 <=1 
C1192: x49+x57-y49_57 <=1 
C1193: x49+x58-y49_58 <=1 
C1194: x49+x59 <=1 
C1195: x49+x60 <=1 
C1196: x49+x61 <=1 
C1197: x49+x62 <=1 
C1198: x49+x64 <=1 
C1199: x49+x65 <=1 
C1200: x50+x51-y50_51 <=1 
C1201: x50+x55 <=1 
C1202: x50+x56-y50_56 <=1 
C1203: x50+x57-y50_57 <=1 
C1204: x50+x58-y50_58 <=1 
C1205: x50+x59-y50_59 <=1 
C1206: x50+x60 <=1 
C1207: x50+x61 <=1 
C1208: x50+x63-y50_63 <=1 
C1209: x50+x65-y50_65 <=1 
C1210: x51+x52-y51_52 <=1 
C1211: x51+x58 <=1 
C1212: x51+x59-y51_59 <=1 
C1213: x51+x60-y51_60 <=1 
C1214: x51+x61-y51_61 <=1 
C1215: x51+x63-y51_63 <=1 
C1216: x51+x64-y51_64 <=1 
C1217: x52+x53-y52_53 <=1 
C1218: x52+x55-y52_55 <=1 
C1219: x52+x57-y52_57 <=1 
C1220: x52+x58 <=1 
C1221: x52+x59-y52_59 <=1 
C1222: x52+x60-y52_60 <=1 
C1223: x52+x61-y52_61 <=1 
C1224: x52+x63 <=1 
C1225: x52+x64-y52_64 <=1 
C1226: x52+x65-y52_65 <=1 
C1227: x53+x54 <=1 
C1228: x53+x55 <=1 
C1229: x53+x57-y53_57 <=1 
C1230: x53+x58 <=1 
C1231: x53+x59-y53_59 <=1 
C1232: x53+x60-y53_60 <=1 
C1233: x53+x64-y53_64 <=1 
C1234: x53+x65-y53_65 <=1 
C1235: x54+x55 <=1 
C1236: x54+x57-y54_57 <=1 
C1237: x54+x59 <=1 
C1238: x54+x62-y54_62 <=1 
C1239: x54+x64 <=1 
C1240: x54+x65-y54_65 <=1 
C1241: x55+x58-y55_58 <=1 
C1242: x55+x59 <=1 
C1243: x55+x62-y55_62 <=1 
C1244: x55+x65 <=1 
C1245: x56+x60-y56_60 <=1 
C1246: x56+x64-y56_64 <=1 
C1247: x57+x58-y57_58 <=1 
C1248: x57+x60 <=1 
C1249: x57+x62-y57_62 <=1 
C1250: x57+x64 <=1 
C1251: x57+x65 <=1 
C1252: x58+x59-y58_59 <=1 
C1253: x58+x61 <=1 
C1254: x58+x63 <=1 
C1255: x58+x64 <=1 
C1256: x58+x65 <=1 
C1257: x59+x60 <=1 
C1258: x59+x61 <=1 
C1259: x59+x62 <=1 
C1260: x59+x63 <=1 
C1261: x59+x64-y59_64 <=1 
C1262: x59+x65 <=1 
C1263: x60+x61 <=1 
C1264: x60+x62-y60_62 <=1 
C1265: x60+x63-y60_63 <=1 
C1266: x61+x62-y61_62 <=1 
C1267: x61+x64-y61_64 <=1 
C1268: x61+x65-y61_65 <=1 
C1269: x62+x64-y62_64 <=1 
C1270: x62+x65 <=1 
C1271: x64+x65 <=1 

binary
x0
x1
x2
x3
x4
x5
x6
x7
x8
x9
x10
x11
x12
x13
x14
x15
x16
x17
x18
x19
x20
x21
x22
x23
x24
x25
x26
x27
x28
x29
x30
x31
x32
x33
x34
x35
x36
x37
x38
x39
x40
x41
x42
x43
x44
x45
x46
x47
x48
x49
x50
x51
x52
x53
x54
x55
x56
x57
x58
x59
x60
x61
x62
x63
x64
x65
