problem_generation/data/GISP/train/er_n=66_m=1271_p=0.60_SET2_setparam=100.00_alpha=0.50_746.sol
objective value:                                 1269
x1                                                  1 	(obj:100)
x7                                                  1 	(obj:100)
x9                                                  1 	(obj:100)
x13                                                 1 	(obj:100)
x19                                                 1 	(obj:100)
x24                                                 1 	(obj:100)
x27                                                 1 	(obj:100)
x29                                                 1 	(obj:100)
x34                                                 1 	(obj:100)
x42                                                 1 	(obj:100)
x49                                                 1 	(obj:100)
x50                                                 1 	(obj:100)
x54                                                 1 	(obj:100)
y29_50                                              1 	(obj:-1)
y13_50                                              1 	(obj:-1)
y9_34                                               1 	(obj:-1)
y24_27                                              1 	(obj:-1)
y9_29                                               1 	(obj:-1)
y1_29                                               1 	(obj:-1)
y24_49                                              1 	(obj:-1)
y9_24                                               1 	(obj:-1)
y27_50                                              1 	(obj:-1)
y9_19                                               1 	(obj:-1)
y1_19                                               1 	(obj:-1)
y49_50                                              1 	(obj:-1)
y27_49                                              1 	(obj:-1)
y1_9                                                1 	(obj:-1)
y1_13                                               1 	(obj:-1)
y34_42                                              1 	(obj:-1)
y7_24                                               1 	(obj:-1)
y7_42                                               1 	(obj:-1)
y7_19                                               1 	(obj:-1)
y29_42                                              1 	(obj:-1)
y1_27                                               1 	(obj:-1)
y13_29                                              1 	(obj:-1)
y24_29                                              1 	(obj:-1)
y13_42                                              1 	(obj:-1)
y24_42                                              1 	(obj:-1)
y42_50                                              1 	(obj:-1)
y13_19                                              1 	(obj:-1)
y42_54                                              1 	(obj:-1)
y1_7                                                1 	(obj:-1)
y7_50                                               1 	(obj:-1)
y34_54                                              1 	(obj:-1)
